1555142
31,22,14,52,33,57,18,10,44,53,37,62,39,51,35,68,50,28,36,59,16,2,9,15,8,58,17,27,45,65,13,54,47,20,4,48,63,21,3,61,24,1,12,42,32,56,40,5,19,49,23,60,29,6,25,30,41,38,43,7,67,64,11,66,34,46,55,26